(declare-fun temp2714_1 () (_ BitVec 64))
(declare-fun ARGNAME_use_input_stats_NAMEEND () (_ BitVec 64))
(declare-fun temp2714_2 () (_ BitVec 64))
(declare-fun var985537 () (_ BitVec 64))
(declare-fun var985545 () (_ BitVec 64))
(declare-fun temp2714_3 () (_ BitVec 64))
(declare-fun temp2714_4 () (_ BitVec 64))
(declare-fun ARGNAME_input_NAMEEND_DIMSIZE
             ()
             (Array (_ BitVec 64) (_ BitVec 64)))
(declare-fun temp2714_5 () (_ BitVec 64))
(declare-fun temp2714_6 () (_ BitVec 64))
(declare-fun temp2714_7 () (_ BitVec 64))
(declare-fun temp2714_8 () (_ BitVec 64))
(declare-fun temp2714_9 () (_ BitVec 64))
(declare-fun temp2714_10 () (_ BitVec 64))
(declare-fun temp2714_11 () (_ BitVec 64))
(declare-fun temp2714_12 () (_ BitVec 64))
(declare-fun temp2714_13 () (_ BitVec 64))
(declare-fun temp2714_14 () (_ BitVec 64))
(declare-fun temp2714_15 () (_ BitVec 64))
(declare-fun temp2714_16 () (_ BitVec 64))
(declare-fun temp2714_17 () (_ BitVec 64))
(declare-fun temp2714_18 () (_ BitVec 64))
(declare-fun temp2714_19 () (_ BitVec 64))
(declare-fun temp2714_20 () (_ BitVec 64))
(declare-fun temp2714_21 () (_ BitVec 64))
(declare-fun temp2714_22 () (_ BitVec 64))
(declare-fun temp2714_23 () (_ BitVec 64))
(declare-fun ARGNAME_input_NAMEEND_DIM () (_ BitVec 64))
(declare-fun temp2714_24 () (_ BitVec 64))
(declare-fun temp2714_25 () (_ BitVec 64))
(declare-fun temp2714_26 () (_ BitVec 64))
(declare-fun temp2714_27 () (_ BitVec 64))
(declare-fun temp2714_28 () (_ BitVec 64))
(declare-fun var2039185 () (_ BitVec 64))
(declare-fun temp2714_29 () (_ BitVec 64))
(declare-fun var2235793 () (_ BitVec 64))
(declare-fun temp2714_30 () (_ BitVec 64))
(declare-fun temp2714_31 () (_ BitVec 64))
(declare-fun temp2714_32 () (_ BitVec 64))
(declare-fun temp2714_33 () (_ BitVec 64))
(declare-fun temp2714_34 () (_ BitVec 64))
(declare-fun var2753483 () (_ BitVec 64))
(declare-fun temp2714_35 () (_ BitVec 64))
(declare-fun var2756010 () (_ BitVec 64))
(declare-fun temp2714_36 () (_ BitVec 64))
(declare-fun temp2714_38 () (_ BitVec 64))
(declare-fun temp2714_37 () (_ BitVec 64))
(declare-fun temp2714_39 () (_ BitVec 64))
(declare-fun temp2714_40 () (_ BitVec 64))
(declare-fun temp2714_42 () (_ BitVec 64))
(declare-fun temp2714_41 () (_ BitVec 64))
(declare-fun temp2714_44 () (_ BitVec 64))
(declare-fun temp2714_43 () (_ BitVec 64))
(declare-fun temp2714_45 () (_ BitVec 64))
(declare-fun temp2714_46 () (_ BitVec 64))
(declare-fun temp2714_48 () (_ BitVec 64))
(declare-fun temp2714_47 () (_ BitVec 64))
(declare-fun temp2714_50 () (_ BitVec 64))
(declare-fun temp2714_49 () (_ BitVec 64))
(declare-fun temp2714_51 () (_ BitVec 64))
(declare-fun var8849857 () (_ BitVec 64))
(declare-fun var8849865 () (_ BitVec 64))
(assert (= temp2714_1 #x0000000000000001))
(assert (= ARGNAME_use_input_stats_NAMEEND temp2714_1))
(assert (= temp2714_2 #x0000000000000002))
(assert (= var985537 temp2714_2))
(assert (= var985545 var985537))
(assert (= temp2714_3 #x0000000000000000))
(assert (= temp2714_4 temp2714_3))
(assert (= temp2714_5 (select ARGNAME_input_NAMEEND_DIMSIZE temp2714_4)))
(assert (= temp2714_6 #x0000000000000001))
(assert (= temp2714_7 temp2714_6))
(assert (= temp2714_8 (select ARGNAME_input_NAMEEND_DIMSIZE temp2714_7)))
(assert (= temp2714_9 #x0000000000000002))
(assert (= temp2714_10 temp2714_9))
(assert (= temp2714_11 (select ARGNAME_input_NAMEEND_DIMSIZE temp2714_10)))
(assert (= temp2714_12 #x0000000000000003))
(assert (= temp2714_13 temp2714_12))
(assert (= temp2714_14 (select ARGNAME_input_NAMEEND_DIMSIZE temp2714_13)))
(assert (= temp2714_15 #x0000000000000004))
(assert (= temp2714_16 temp2714_15))
(assert (= temp2714_17 (select ARGNAME_input_NAMEEND_DIMSIZE temp2714_16)))
(assert (= temp2714_18 #x0000000000000005))
(assert (= temp2714_19 temp2714_18))
(assert (= temp2714_20 (select ARGNAME_input_NAMEEND_DIMSIZE temp2714_19)))
(assert (= temp2714_21 #x0000000000000000))
(assert (= temp2714_22 temp2714_21))
(assert (= temp2714_23 (select ARGNAME_input_NAMEEND_DIMSIZE temp2714_22)))
(assert (bvsgt ARGNAME_input_NAMEEND_DIM temp2714_21))
(assert (bvsge temp2714_21 (bvneg ARGNAME_input_NAMEEND_DIM)))
(assert (= temp2714_24 #x0000000000000001))
(assert (= temp2714_25 temp2714_24))
(assert (= temp2714_26 (select ARGNAME_input_NAMEEND_DIMSIZE temp2714_25)))
(assert (bvsgt ARGNAME_input_NAMEEND_DIM temp2714_24))
(assert (bvsge temp2714_24 (bvneg ARGNAME_input_NAMEEND_DIM)))
(assert (= temp2714_27 temp2714_26))
(assert (= temp2714_28 #x0000000000000001))
(assert (= var2039185 temp2714_28))
(assert (= temp2714_29 #x0000000000000000))
(assert (= var2235793 temp2714_29))
(assert (= temp2714_30 temp2714_23))
(assert (= temp2714_31 temp2714_23))
(assert (= temp2714_32 temp2714_23))
(assert (= temp2714_33 temp2714_23))
(assert (= temp2714_34 #x0000000000000001))
(assert (= var2753483 temp2714_34))
(assert (= temp2714_35 #x0000000000000000))
(assert (= var2756010 temp2714_35))
(assert (= temp2714_36 #x0000000000000000))
(assert (= var2756010 temp2714_36))
(assert (= temp2714_38 #x0000000000000001))
(assert (= temp2714_37 temp2714_38))
(assert (= temp2714_39 temp2714_23))
(assert (= temp2714_40 temp2714_26))
(assert (= temp2714_42 #x0000000000000002))
(assert (= temp2714_41 temp2714_42))
(assert (= temp2714_44 #x0000000000000000))
(assert (= temp2714_43 temp2714_44))
(assert (= temp2714_45 temp2714_23))
(assert (= temp2714_46 temp2714_26))
(assert (= temp2714_48 #x0000000000000002))
(assert (= temp2714_47 temp2714_48))
(assert (= temp2714_50 #x0000000000000000))
(assert (= temp2714_49 temp2714_50))
(assert (= temp2714_51 #x0000000000000002))
(assert (= var8849857 temp2714_51))
(assert (= var8849865 var8849857))
(model-add temp2714_1 () (_ BitVec 64) #x0000000000000001)
(model-add ARGNAME_use_input_stats_NAMEEND () (_ BitVec 64) #x0000000000000001)





